10 6 2
5 2 2 74 3 74 1 1 16 1 2 80 2 2 50 3 50 -2 5 46 6 46 
5 -2 5 62 6 62 1 3 75 1 2 59 1 3 38 1 1 98 
5 1 1 42 3 2 98 3 98 4 98 3 2 44 3 44 4 44 1 1 89 -2 5 18 6 18 
5 1 1 50 2 1 43 4 43 2 3 60 4 60 -2 5 28 6 28 1 3 11 
5 1 4 58 1 1 38 1 4 84 1 1 71 -2 5 24 6 24 
5 2 1 28 2 28 1 2 15 1 1 94 -2 5 14 6 14 1 4 60 
5 2 2 72 4 72 1 3 86 -2 5 96 6 96 3 2 28 3 28 4 28 1 4 73 
5 1 4 35 1 4 84 1 3 11 1 3 41 -2 5 54 6 54 
5 3 2 31 3 31 4 31 3 2 99 3 99 4 99 1 4 65 -2 5 34 6 34 1 4 35 
5 1 1 10 1 4 87 -2 5 92 6 92 2 1 22 4 22 3 1 17 2 17 3 17 
